
Starting CP-SAT solver v9.15.6755
Parameters: random_seed: 2026073686 max_time_in_seconds: 6939.9999994556665 log_search_progress: true cp_model_presolve: true linearization_level: 2 num_search_workers: 4 cp_model_probing_level: 2 symmetry_level: 2

Initial satisfaction model '': (model_fingerprint: 0x47c225b1361a89b)
#Variables: 724 (608 primary variables)
  - 724 Booleans in [0,1]
#kBoolAnd: 110 (#enforced: 110) (#literals: 330)
#kBoolOr: 110 (#enforced: 110) (#literals: 220)
#kExactlyOne: 87 (#literals: 261)
#kLinear1: 32 (#enforced: 6)
#kLinear2: 336 (#enforced: 336) (#complex_domain: 110)
#kLinear3: 1'600 (#enforced: 6)
#kLinearN: 1'132 (#enforced: 243) (#terms: 9'111)

Starting presolve at 0.00s
  7.32e-04s  0.00e+00d  [DetectDominanceRelations] 
  8.90e-03s  0.00e+00d  [PresolveToFixPoint] #num_loops=3 #num_dual_strengthening=1 
  3.61e-05s  0.00e+00d  [ExtractEncodingFromLinear] #potential_supersets=91 
  2.89e-04s  0.00e+00d  [DetectDuplicateColumns] 
  1.02e-04s  0.00e+00d  [DetectDuplicateConstraints] #duplicates=5 
[Symmetry] Graph for symmetry has 4'871 nodes and 15'724 arcs.
[Symmetry] Symmetry computation done. time: 0.00127254 dtime: 0.00180562
[SAT presolve] num removable Booleans: 220 / 628
[SAT presolve] num trivial clauses: 0
[SAT presolve] [0s] clauses:2'736 literals:7'436 vars:507 one_side_vars:67 simple_definition:1 singleton_clauses:0
[SAT presolve] [0.00023483s] clauses:2'735 literals:7'429 vars:507 one_side_vars:67 simple_definition:1 singleton_clauses:0
[SAT presolve] [0.000709849s] clauses:2'250 literals:6'634 vars:379 one_side_vars:73 simple_definition:69 singleton_clauses:0
  1.15e-04s  0.00e+00d  [DetectDuplicateConstraintsWithDifferentEnforcements] #without_enforcements=4 
  5.52e-03s  2.36e-03d  [Probe] #probed=1'290 #fixed_bools=28 #equiv=16 #new_binary_clauses=881 
  4.63e-04s  2.00e-04d  [MaxClique] Merged 597 constraints with 1'344 literals into 545 constraints with 1'249 literals
  9.17e-04s  0.00e+00d  [DetectDominanceRelations] 
  3.18e-03s  0.00e+00d  [PresolveToFixPoint] #num_loops=1 #num_dual_strengthening=1 
  1.23e-03s  0.00e+00d  [ProcessAtMostOneAndLinear] #num_changes=2 
  1.06e-04s  0.00e+00d  [DetectDuplicateConstraints] #duplicates=13 
  8.34e-05s  0.00e+00d  [DetectDuplicateConstraintsWithDifferentEnforcements] 
  1.11e-03s  6.07e-05d  [DetectDominatedLinearConstraints] #relevant_constraints=812 #num_inclusions=323 #num_redundant=7 
  1.14e-04s  0.00e+00d  [DetectDifferentVariables] 
  7.96e-04s  8.07e-05d  [ProcessSetPPC] #relevant_constraints=2'918 #num_inclusions=81 
  3.22e-04s  3.38e-05d  [TransformClausesToExactlyOne] #num_amos=448 #num_clauses=1'668 #num_checked=1'668 
  5.03e-05s  0.00e+00d  [DetectEncodedComplexDomains] 
  4.36e-05s  9.00e-08d  [FindAlmostIdenticalLinearConstraints] #num_tested_pairs=1 
  9.41e-04s  1.28e-03d  [FindBigAtMostOneAndLinearOverlap] 
  1.17e-03s  1.04e-03d  [FindBigVerticalLinearOverlap] 
  3.96e-04s  7.10e-04d  [FindBigHorizontalLinearOverlap] #linears=454 
  3.44e-04s  2.71e-05d  [MergeClauses] #num_collisions=23 #num_merges=23 #num_saved_literals=114 
  8.87e-04s  0.00e+00d  [DetectDominanceRelations] 
  3.00e-03s  0.00e+00d  [PresolveToFixPoint] #num_loops=1 #num_dual_strengthening=1 
  8.73e-04s  0.00e+00d  [DetectDominanceRelations] 
  2.97e-03s  0.00e+00d  [PresolveToFixPoint] #num_loops=1 #num_dual_strengthening=1 
  1.59e-04s  0.00e+00d  [DetectDuplicateColumns] 
  8.34e-05s  0.00e+00d  [DetectDuplicateConstraints] 
[Symmetry] Graph for symmetry has 4'193 nodes and 13'193 arcs.
[Symmetry] Symmetry computation done. time: 0.00101719 dtime: 0.00141219
[SAT presolve] num removable Booleans: 91 / 455
[SAT presolve] num trivial clauses: 0
[SAT presolve] [0s] clauses:2'082 literals:6'248 vars:426 one_side_vars:127 simple_definition:80 singleton_clauses:0
[SAT presolve] [0.000235712s] clauses:2'082 literals:6'072 vars:426 one_side_vars:171 simple_definition:66 singleton_clauses:0
[SAT presolve] [0.000322333s] clauses:2'074 literals:6'066 vars:421 one_side_vars:172 simple_definition:52 singleton_clauses:0
  1.43e-04s  0.00e+00d  [DetectDuplicateConstraintsWithDifferentEnforcements] 
  4.52e-03s  1.62e-03d  [Probe] #probed=1'262 #new_binary_clauses=147 
  3.63e-04s  1.75e-04d  [MaxClique] Merged 446 constraints with 971 literals into 438 constraints with 968 literals
  8.93e-04s  0.00e+00d  [DetectDominanceRelations] 
  2.99e-03s  0.00e+00d  [PresolveToFixPoint] #num_loops=1 #num_dual_strengthening=1 
  1.10e-03s  0.00e+00d  [ProcessAtMostOneAndLinear] 
  9.84e-05s  0.00e+00d  [DetectDuplicateConstraints] 
  8.48e-05s  0.00e+00d  [DetectDuplicateConstraintsWithDifferentEnforcements] 
  1.28e-03s  6.05e-05d  [DetectDominatedLinearConstraints] #relevant_constraints=806 #num_inclusions=318 #num_redundant=1 
  1.23e-04s  0.00e+00d  [DetectDifferentVariables] 
  7.53e-04s  7.56e-05d  [ProcessSetPPC] #relevant_constraints=2'950 #num_inclusions=99 
  2.81e-04s  3.31e-05d  [TransformClausesToExactlyOne] #num_amos=437 #num_clauses=1'662 #num_checked=1'662 
  4.36e-05s  0.00e+00d  [DetectEncodedComplexDomains] 
  3.44e-05s  0.00e+00d  [FindAlmostIdenticalLinearConstraints] 
  8.98e-04s  1.21e-03d  [FindBigAtMostOneAndLinearOverlap] 
  1.17e-03s  9.77e-04d  [FindBigVerticalLinearOverlap] 
  3.97e-04s  6.64e-04d  [FindBigHorizontalLinearOverlap] #linears=454 
  3.47e-04s  2.62e-05d  [MergeClauses] #num_collisions=75 #num_merges=75 #num_saved_literals=228 
  9.08e-04s  0.00e+00d  [DetectDominanceRelations] 
  3.03e-03s  0.00e+00d  [PresolveToFixPoint] #num_loops=1 #num_dual_strengthening=1 
  8.88e-04s  0.00e+00d  [DetectDominanceRelations] 
  3.02e-03s  0.00e+00d  [PresolveToFixPoint] #num_loops=1 #num_dual_strengthening=1 
  2.26e-04s  0.00e+00d  [DetectDuplicateColumns] 
  9.91e-05s  0.00e+00d  [DetectDuplicateConstraints] 
[Symmetry] Graph for symmetry has 4'128 nodes and 12'837 arcs.
[Symmetry] Symmetry computation done. time: 0.000994374 dtime: 0.00136458
[SAT presolve] num removable Booleans: 85 / 450
[SAT presolve] num trivial clauses: 0
[SAT presolve] [0s] clauses:2'063 literals:6'034 vars:421 one_side_vars:175 simple_definition:52 singleton_clauses:0
[SAT presolve] [0.000209308s] clauses:2'063 literals:6'034 vars:421 one_side_vars:175 simple_definition:52 singleton_clauses:0
[SAT presolve] [0.000275663s] clauses:2'063 literals:6'034 vars:421 one_side_vars:175 simple_definition:52 singleton_clauses:0
  1.04e-04s  0.00e+00d  [DetectDuplicateConstraintsWithDifferentEnforcements] 
  4.37e-03s  1.62e-03d  [Probe] #probed=1'262 #new_binary_clauses=147 
  3.65e-04s  1.70e-04d  [MaxClique] 
  9.12e-04s  0.00e+00d  [DetectDominanceRelations] 
  3.04e-03s  0.00e+00d  [PresolveToFixPoint] #num_loops=1 #num_dual_strengthening=1 
  1.09e-03s  0.00e+00d  [ProcessAtMostOneAndLinear] 
  1.05e-04s  0.00e+00d  [DetectDuplicateConstraints] 
  8.83e-05s  0.00e+00d  [DetectDuplicateConstraintsWithDifferentEnforcements] 
  1.09e-03s  5.70e-05d  [DetectDominatedLinearConstraints] #relevant_constraints=806 #num_inclusions=303 #num_redundant=1 
  1.28e-04s  0.00e+00d  [DetectDifferentVariables] 
  7.58e-04s  7.19e-05d  [ProcessSetPPC] #relevant_constraints=2'948 #num_inclusions=81 
  3.05e-04s  3.31e-05d  [TransformClausesToExactlyOne] #num_amos=436 #num_clauses=1'662 #num_checked=1'662 
  5.13e-05s  0.00e+00d  [DetectEncodedComplexDomains] 
  4.11e-05s  1.00e-07d  [FindAlmostIdenticalLinearConstraints] #num_tested_pairs=1 
  8.75e-04s  1.14e-03d  [FindBigAtMostOneAndLinearOverlap] 
  1.11e-03s  9.18e-04d  [FindBigVerticalLinearOverlap] 
  3.70e-04s  6.19e-04d  [FindBigHorizontalLinearOverlap] #linears=454 
  3.46e-04s  2.62e-05d  [MergeClauses] #num_collisions=75 #num_merges=75 #num_saved_literals=228 
  9.19e-04s  0.00e+00d  [DetectDominanceRelations] 
  3.06e-03s  0.00e+00d  [PresolveToFixPoint] #num_loops=1 #num_dual_strengthening=1 
  2.07e-05s  0.00e+00d  [MergeNoOverlap] 
  2.01e-05s  0.00e+00d  [MergeNoOverlap2D] 

Presolve summary:
  - 45 affine relations were detected.
  - rule 'TODO dual: only one blocking constraint?' was applied 747 times.
  - rule 'TODO dual: tighten at most one' was applied 8 times.
  - rule 'TODO linear inclusion: superset is equality' was applied 92 times.
  - rule 'affine: new relation' was applied 45 times.
  - rule 'at_most_one: removed literals' was applied 145 times.
  - rule 'at_most_one: size one' was applied 144 times.
  - rule 'at_most_one: transformed into max clique' was applied 2 times.
  - rule 'bool_or: implications' was applied 56 times.
  - rule 'bool_or: only one literal' was applied 12 times.
  - rule 'bool_or: removed enforcement literal' was applied 557 times.
  - rule 'deductions: 848 stored' was applied 1 time.
  - rule 'duplicate: merged rhs of linear constraint' was applied 17 times.
  - rule 'duplicate: removed constraint' was applied 18 times.
  - rule 'duplicate: removed enforced constraint' was applied 4 times.
  - rule 'enforcement: false literal' was applied 40 times.
  - rule 'enforcement: true literal' was applied 16 times.
  - rule 'exactly_one: removed literals' was applied 32 times.
  - rule 'exactly_one: satisfied' was applied 3 times.
  - rule 'exactly_one: singleton' was applied 3 times.
  - rule 'exactly_one: size two' was applied 29 times.
  - rule 'exactly_one: x and not(x)' was applied 14 times.
  - rule 'incompatible linear: add implication' was applied 105 times.
  - rule 'linear + amo: empty after processing' was applied 5 times.
  - rule 'linear + amo: extracted enforcement literal' was applied 90 times.
  - rule 'linear + amo: fixed literal implied by enforcement' was applied 1 time.
  - rule 'linear inclusion: redundant containing constraint' was applied 3 times.
  - rule 'linear inclusion: redundant included constraint' was applied 3 times.
  - rule 'linear inclusion: sparsify superset' was applied 3 times.
  - rule 'linear1: x in domain' was applied 26 times.
  - rule 'linear2: convert ax + by != cte to clauses' was applied 252 times.
  - rule 'linear2: convert implied ax + by == cte to clauses' was applied 114 times.
  - rule 'linear2: implied ax + by = cte has only one solution' was applied 8 times.
  - rule 'linear: always true' was applied 422 times.
  - rule 'linear: coefficient strengthening by increasing it' was applied 2 times.
  - rule 'linear: empty' was applied 1 time.
  - rule 'linear: extracted at most one (max)' was applied 1 time.
  - rule 'linear: fixed or dup variables' was applied 880 times.
  - rule 'linear: negative clause' was applied 1'297 times.
  - rule 'linear: negative reified and' was applied 78 times.
  - rule 'linear: never in domain' was applied 5 times.
  - rule 'linear: positive at most one' was applied 38 times.
  - rule 'linear: positive equal one' was applied 1 time.
  - rule 'linear: reduced variable domains' was applied 1 time.
  - rule 'linear: remapped using affine relations' was applied 23 times.
  - rule 'presolve: 93 unused variables removed.' was applied 1 time.
  - rule 'presolve: iteration' was applied 3 times.
  - rule 'probing: bool_or reduced to implication' was applied 24 times.
  - rule 'probing: simplified clauses' was applied 18 times.
  - rule 'probing: simplified enforcement list' was applied 1 time.
  - rule 'setppc: bool_or in at_most_one' was applied 6 times.
  - rule 'setppc: exactly_one included in linear' was applied 1 time.
  - rule 'setppc: reduced linear coefficients' was applied 1 time.
  - rule 'setppc: removed dominated constraints' was applied 73 times.

Presolved satisfaction model '': (model_fingerprint: 0x94c8c314a376a89f)
#Variables: 450 (390 primary variables)
  - 450 Booleans in [0,1]
#kAtMostOne: 35 (#literals: 150)
#kBoolAnd: 254 (#enforced: 254) (#literals: 655)
#kBoolAndClauses: 75 (#enforced: 75 #multi: 75) (#literals: 378)
#kBoolOr: 1'512 (#literals: 4'626)
#kExactlyOne: 44 (#literals: 177)
#kLinearN: 806 (#enforced: 119 #multi: 1) (#terms: 5'591)
[Symmetry] Graph for symmetry has 3'854 nodes and 12'817 arcs.
[Symmetry] Symmetry computation done. time: 0.000878475 dtime: 0.00135088

Preloading model.
#Model   0.09s var:450/450 constraints:2726/2726

Starting search at 0.09s with 4 workers.
3 full problem subsolvers: [default_lp, max_lp, no_lp]
1 first solution subsolver: [fj]
2 interleaved subsolvers: [feasibility_pump, rins/rens]
2 helper subsolvers: [neighborhood_helper, synchronization_agent]

#Model   0.25s var:448/450 constraints:2724/2726
#Model   0.44s var:446/450 constraints:2722/2726
#Model  42.82s var:445/450 constraints:2720/2726
#Model 1263.44s var:444/450 constraints:2701/2726
#Model 2479.08s var:443/450 constraints:2680/2726
#Model 2615.61s var:442/450 constraints:2662/2726
#Model 2672.41s var:441/450 constraints:2644/2726
#Model 2680.61s var:440/450 constraints:2629/2726
#Model 2683.70s var:439/450 constraints:2608/2726
#Model 2685.04s var:437/450 constraints:2567/2726
#Model 2688.93s var:436/450 constraints:2548/2726
#Model 2693.91s var:435/450 constraints:2527/2726
#Model 2695.50s var:430/450 constraints:2484/2726
#Model 2695.93s var:429/450 constraints:2463/2726
#Model 2696.61s var:417/450 constraints:2306/2726
#Model 2696.64s var:412/450 constraints:2213/2726
#Model 2696.75s var:399/450 constraints:2013/2726
#Done  2696.80s no_lp

Task timing                   n [     min,      max]      avg      dev     time         n [     min,      max]      avg      dev    dtime
        'default_lp':         1 [  44.95m,   44.95m]   44.95m   0.00ns   44.95m         2 [  1.73ms,   42.92m]   21.46m   21.46m   42.92m
  'feasibility_pump':     13375 [757.35us,  90.84ms]   1.48ms 840.17us   19.82s     13374 [254.87us,  79.21ms] 260.77us 682.67us    3.49s
                'fj':     10275 [ 96.66ms, 197.48ms] 130.17ms   9.12ms   22.29m     10275 [100.00ms, 100.15ms] 100.02ms  15.44us   17.13m
            'max_lp':         1 [  44.95m,   44.95m]   44.95m   0.00ns   44.95m         2 [ 64.64ms,    1.03h]   30.85m   30.85m    1.03h
             'no_lp':         1 [  44.95m,   44.95m]   44.95m   0.00ns   44.95m         2 [  1.35ms,    1.59h]   47.69m   47.69m    1.59h
         'rins/rens':     12961 [ 21.05ms, 191.41ms] 103.19ms  37.21ms   22.29m     12960 [202.53us, 100.32ms]  68.27ms  36.95ms   14.75m

Search stats     Bools   Conflicts    Branches  Restarts  BacktrackToRoot   Backtrack     BoolPropag  IntegerPropag
  'default_lp':    450     262'111   7'368'168     1'442        1'045'874   1'597'094     67'746'735     62'714'829
      'max_lp':    450     102'833  12'121'849       658        1'710'607   2'228'238    102'057'231    109'158'207
       'no_lp':    450  23'296'652  30'214'645    75'455          487'850  23'531'470  1'812'263'126    329'959'111

SAT formula      Fixed  Equiv  Total  VarLeft  BinaryClauses  PermanentClauses  TemporaryClauses
  'default_lp':     14      1    450      435          2'196            29'312             4'034
      'max_lp':      9      1    450      440          2'198            35'691             3'341
       'no_lp':    207      1    450      242          2'226            44'494             2'478

SAT stats        ClassicMinim   LitRemoved  LitRemovedBinary   LitLearned  LitForgotten   Subsumed
  'default_lp':       231'287    3'014'219         1'453'127    7'420'554     4'633'098     98'934
      'max_lp':        88'649    1'007'112           556'886    2'204'754     1'050'523     46'254
       'no_lp':    21'069'833  347'966'617        96'104'238  525'918'885   396'501'898  7'195'368

Vivification       Clauses   Decisions  LitTrue  Subsumed  LitRemoved  DecisionReused  Conflicts
  'default_lp':  1'088'145   6'798'858        1    22'879     238'362         383'177      2'189
      'max_lp':  1'752'050  11'623'871        0    25'132     268'714         531'246      2'760
       'no_lp':    338'753   3'004'610        2    25'224     345'206          89'147      1'579

Clause deletion    at_true  l_and_not(l)  to_binary  sub_conflict  sub_extra  sub_decisions  sub_eager  sub_vivify  sub_probing  sub_inpro  blocked  eliminated   forgotten    promoted   conflicts
    'default_lp':   16'020           155         15        97'486        632          3'930      1'448      22'879       11'229     28'693        0           0     131'909     518'535     262'111
        'max_lp':    6'245             0          5        45'781        202          1'360        473      25'132       11'886     22'382        0           0      35'803     169'875     102'833
         'no_lp':  107'347             0        171     7'065'018     41'705        353'431    130'350      25'224       33'284    194'035        0           0  15'303'900  52'033'023  23'296'652

Lp stats         Component  Iterations  AddedCuts  OPTIMAL  DUAL_F.  DUAL_U.
  'default_lp':          1  30'040'171     90'921  362'411        1  188'198
      'max_lp':          1  15'794'115     84'669   43'860   58'403   39'525

Lp dimension        Final dimension of first component
  'default_lp':    244 rows, 317 columns, 1859 entries
      'max_lp':  1220 rows, 450 columns, 13454 entries

Lp debug         CutPropag  CutEqPropag   Adjust  Overflow        Bad  BadScaling
  'default_lp':          0          367  188'174         0  2'329'179           0
      'max_lp':          0          119   39'513         0  2'258'098           0

Lp pool          Constraints  Updates  Simplif  Merged  Shortened  Split  Strengthened       Cuts/Call
  'default_lp':       10'664   22'442        0       0        389      0             0   90'921/98'624
      'max_lp':       12'697   28'010        0       3        153      0         1'888  84'669/106'359

Lp Cut           default_lp  max_lp
         CG_FF:         571     127
          CG_K:         185       1
         CG_KL:         186       -
          CG_R:         596     105
        Clique:           -     176
      MIR_1_FF:         277     849
       MIR_1_K:          62      34
      MIR_1_KL:         160      23
       MIR_1_R:         263     502
     MIR_1_RLT:           -   8'000
      MIR_2_FF:         364     731
       MIR_2_K:          49     141
      MIR_2_KL:         155      94
       MIR_2_R:       1'193     904
      MIR_3_FF:         187     165
       MIR_3_K:          28      31
      MIR_3_KL:          59      30
       MIR_3_R:         588     342
      MIR_4_FF:          58      51
       MIR_4_K:          22      17
      MIR_4_KL:           7       6
       MIR_4_R:         480     238
      MIR_5_FF:          33      15
       MIR_5_K:          15       7
      MIR_5_KL:           3       4
       MIR_5_R:         340     213
      MIR_6_FF:          11      10
       MIR_6_K:           5       3
      MIR_6_KL:           1       -
       MIR_6_R:         232     229
  ZERO_HALF_FF:         240     592
   ZERO_HALF_K:          25      14
  ZERO_HALF_KL:          36       4
   ZERO_HALF_R:      84'490  71'011

LNS stats       Improv/Calls  Closed  Difficulty  TimeLimit
  'rins/rens':   12960/12960     50%    7.82e-01       0.10

LS stats                                    Batches  Restarts/Perturbs    LinMoves   GenMoves  CompoundMoves  Bactracks  WeightUpdates  ScoreComputed
                             'fj_restart':      776                133  23'102'534          0              0          0     21'300'675        227'219
                    'fj_restart_compound':      496                129           0  5'045'915        316'644  2'364'387         12'921     84'329'273
                'fj_restart_compound_obj':      518                136           0  5'265'026        328'990  2'467'740         13'687     88'119'996
            'fj_restart_compound_perturb':      624                135           0  6'464'440        345'700  3'059'142         18'420    106'787'298
        'fj_restart_compound_perturb_obj':      668                125           0  6'876'311        338'787  3'268'532         20'252    114'348'012
                       'fj_restart_decay':      378                129  11'362'709          0              0          0        526'826        606'130
              'fj_restart_decay_compound':      546                126           0  6'125'461      1'041'095  2'541'901          7'406     93'498'271
          'fj_restart_decay_compound_obj':      853                158           0  9'821'861      1'662'573  4'079'301         11'579    146'454'368
      'fj_restart_decay_compound_perturb':      728                164           0  8'221'668      1'388'848  3'416'026          9'883    124'790'931
  'fj_restart_decay_compound_perturb_obj':      478                120           0  5'344'537        907'246  2'218'384          6'466     81'874'691
                   'fj_restart_decay_obj':    1'106                139  33'347'937          0              0          0      1'540'420      1'792'606
               'fj_restart_decay_perturb':      377                140  11'335'040          0              0          0        525'213        603'435
           'fj_restart_decay_perturb_obj':    1'173                113  35'397'504          0              0          0      1'633'348      1'907'933
                         'fj_restart_obj':      587                138  16'686'549          0              0          0     16'017'152        199'309
                     'fj_restart_perturb':      466                146  13'568'370          0              0          0     12'569'528        166'576
                 'fj_restart_perturb_obj':      501                158  14'853'777          0              0          0     13'278'957        179'857

Solution repositories    Added  Queried  Synchro
    'alternative_path':      0        0        0
      'best_solutions':      0        0        0
   'fj solution hints':  2'181        0    2'181
        'lp solutions':    916   12'961      916
                'pump':      0        0

Improving bounds shared    Num  Sym
            'default_lp':    2    0
                'max_lp':    1    0
                 'no_lp':   50    0

Clauses shared    #Exported  #Imported  #BinaryRead  #BinaryTotal
   'default_lp':      3'687     87'438          886         1'089
       'max_lp':      4'025     84'785          797         1'089
        'no_lp':     88'209      7'955        1'089         1'089

LRAT_status: NA
CpSolverResponse summary:
status: INFEASIBLE
objective: NA
best_bound: NA
integers: 317
booleans: 450
conflicts: 23296652
branches: 30214645
propagations: 1812263126
integer_propagations: 329959111
restarts: 75455
lp_iterations: 0
walltime: 2696.82
usertime: 2696.82
deterministic_time: 13916.5
gap_integral: 0

{
  "board_size": 22,
  "parity_proved": 0,
  "target": 34,
  "child_id": 1486,
  "child_count": 2640,
  "partition": "unknown_pair_x_diag_plus_twos_x_diag_minus_twos",
  "build_seconds": 0.07986855506896973,
  "workers": 4,
  "requested_seed": 2026073686,
  "effective_seed": 2026073686,
  "main_diagonal_pair": [
    3,
    15
  ],
  "pair_index": 68,
  "diag_plus_twos": 15,
  "diag_minus_twos": 16,
  "pair_excess": 3,
  "residual_certificate_slack": 109,
  "analytic_minimum_line_defect": 48,
  "analytic_defect_details": {
    "row_costs": {
      "12": 6,
      "13": 3,
      "14": 0,
      "15": 0,
      "16": 0,
      "17": 0
    },
    "column_costs": {
      "12": 6,
      "13": 3,
      "14": 0,
      "15": 0,
      "16": 0,
      "17": 0
    },
    "plus_cost": 48,
    "minus_cost": 0,
    "row_column_minimum": 0
  },
  "maximal_line_constraints": 2455,
  "analytic_infeasible": false,
  "allowed_points": 242,
  "status": "INFEASIBLE",
  "proof_method": "cp_sat_all_lines_with_certificate_profile_cuts",
  "elapsed_seconds": 2696.821923971176,
  "branches": 30214645,
  "conflicts": 23296652
}
